* #variable= 1136 #constraint= 1053 
+1 x62 = 1 ;
+1 x63 = 0 ;
+1 x64 = 0 ;
+1 x65 = 0 ;
+1 x66 = 0 ;
+1 x67 = 0 ;
+1 x68 = 0 ;
+1 x69 = 0 ;
+1 x70 = 0 ;
+1 x71 = 0 ;
+1 x72 = 0 ;
+1 x73 = 0 ;
+2 x87 +1 x74 -1 x50 -1 x62 = 0 ;
+2 x88 +1 x75 -1 x51 -1 x87 -1 x63 = 0 ;
+2 x89 +1 x76 -1 x52 -1 x88 -1 x64 = 0 ;
+2 x90 +1 x77 -1 x53 -1 x89 -1 x65 = 0 ;
+2 x91 +1 x78 -1 x54 -1 x90 -1 x66 = 0 ;
+2 x92 +1 x79 -1 x55 -1 x91 -1 x67 = 0 ;
+2 x93 +1 x80 -1 x56 -1 x92 -1 x68 = 0 ;
+2 x94 +1 x81 -1 x57 -1 x93 -1 x69 = 0 ;
+2 x95 +1 x82 -1 x58 -1 x94 -1 x70 = 0 ;
+2 x96 +1 x83 -1 x59 -1 x95 -1 x71 = 0 ;
+2 x97 +1 x84 -1 x60 -1 x96 -1 x72 = 0 ;
+2 x98 +1 x85 -1 x61 -1 x97 -1 x73 = 0 ;
+1 x98 -1 x86 = 0 ;
+2 x99 +1 x1112 -1 x1088 -1 x1 = 0 ;
+2 x100 +1 x1113 -1 x1089 -1 x99 -1 x2 = 0 ;
+2 x101 +1 x1114 -1 x1090 -1 x100 -1 x3 = 0 ;
+2 x102 +1 x1115 -1 x1091 -1 x101 -1 x4 = 0 ;
+2 x103 +1 x1116 -1 x1092 -1 x102 -1 x5 = 0 ;
+2 x104 +1 x1117 -1 x1093 -1 x103 -1 x6 = 0 ;
+2 x105 +1 x1118 -1 x1094 -1 x104 -1 x7 = 0 ;
+2 x106 +1 x1119 -1 x1095 -1 x105 -1 x8 = 0 ;
+2 x107 +1 x1120 -1 x1096 -1 x106 -1 x9 = 0 ;
+2 x108 +1 x1121 -1 x1097 -1 x107 -1 x10 = 0 ;
+2 x109 +1 x1122 -1 x1098 -1 x108 -1 x11 = 0 ;
+2 x110 +1 x1123 -1 x1099 -1 x109 -1 x12 = 0 ;
+2 x111 +1 x1124 -1 x1100 -1 x110 -1 x13 = 0 ;
+2 x112 +1 x1125 -1 x1101 -1 x111 -1 x14 = 0 ;
+2 x113 +1 x1126 -1 x1102 -1 x112 -1 x15 = 0 ;
+2 x114 +1 x1127 -1 x1103 -1 x113 -1 x16 = 0 ;
+2 x115 +1 x1128 -1 x1104 -1 x114 -1 x17 = 0 ;
+2 x116 +1 x1129 -1 x1105 -1 x115 -1 x18 = 0 ;
+2 x117 +1 x1130 -1 x1106 -1 x116 -1 x19 = 0 ;
+2 x118 +1 x1131 -1 x1107 -1 x117 -1 x20 = 0 ;
+2 x119 +1 x1132 -1 x1108 -1 x118 -1 x21 = 0 ;
+2 x120 +1 x1133 -1 x1109 -1 x119 -1 x22 = 0 ;
+2 x121 +1 x1134 -1 x1110 -1 x120 -1 x23 = 0 ;
+2 x122 +1 x1135 -1 x1111 -1 x121 -1 x24 = 0 ;
+1 x122 -1 x1136 = 0 ;
+1 x13 = 0 ;
+1 x14 = 0 ;
+1 x15 = 0 ;
+1 x16 = 0 ;
+1 x17 = 0 ;
+1 x18 = 0 ;
+1 x19 = 0 ;
+1 x20 = 0 ;
+1 x21 = 0 ;
+1 x22 = 0 ;
+1 x23 = 0 ;
+1 x24 = 0 ;
+1 x49 = 0 ;
+1 x37 -1 x1 >= 0 ;
+1 x37 -1 x25 >= 0 ;
-1 x37 +1 x1 +1 x25 >= 0 ;
+1 x25 = 0 ;
+1 x38 -1 x2 >= 0 ;
+1 x38 -1 x26 >= 0 ;
-1 x38 +1 x2 +1 x26 >= 0 ;
+1 x26 = 1 ;
+1 x39 -1 x3 >= 0 ;
+1 x39 -1 x27 >= 0 ;
-1 x39 +1 x3 +1 x27 >= 0 ;
+1 x27 = 0 ;
+1 x40 -1 x4 >= 0 ;
+1 x40 -1 x28 >= 0 ;
-1 x40 +1 x4 +1 x28 >= 0 ;
+1 x28 = 1 ;
+1 x41 -1 x5 >= 0 ;
+1 x41 -1 x29 >= 0 ;
-1 x41 +1 x5 +1 x29 >= 0 ;
+1 x29 = 0 ;
+1 x42 -1 x6 >= 0 ;
+1 x42 -1 x30 >= 0 ;
-1 x42 +1 x6 +1 x30 >= 0 ;
+1 x30 = 1 ;
+1 x43 -1 x7 >= 0 ;
+1 x43 -1 x31 >= 0 ;
-1 x43 +1 x7 +1 x31 >= 0 ;
+1 x31 = 0 ;
+1 x44 -1 x8 >= 0 ;
+1 x44 -1 x32 >= 0 ;
-1 x44 +1 x8 +1 x32 >= 0 ;
+1 x32 = 1 ;
+1 x45 -1 x9 >= 0 ;
+1 x45 -1 x33 >= 0 ;
-1 x45 +1 x9 +1 x33 >= 0 ;
+1 x33 = 0 ;
+1 x46 -1 x10 >= 0 ;
+1 x46 -1 x34 >= 0 ;
-1 x46 +1 x10 +1 x34 >= 0 ;
+1 x34 = 1 ;
+1 x47 -1 x11 >= 0 ;
+1 x47 -1 x35 >= 0 ;
-1 x47 +1 x11 +1 x35 >= 0 ;
+1 x35 = 0 ;
+1 x48 -1 x12 >= 0 ;
+1 x48 -1 x36 >= 0 ;
-1 x48 +1 x12 +1 x36 >= 0 ;
+1 x36 = 1 ;
-1 x123 +1 x37 >= 0 ;
-1 x123 +1 x74 >= 0 ;
+1 x123 -1 x37 -1 x74 >= -1 ;
+1 x123 +2 x136 +4 x149 +8 x162 +16 x175 +32 x188 +64 x201 +128 x214 +256 x227 +512 x240 +1024 x253 +2048 x266 +4096 x279 +2 x124 +4 x137 +8 x150 +16 x163 +32 x176 +64 x189 +128 x202 +256 x215 +512 x228 +1024 x241 +2048 x254 +4096 x267 +8192 x280 +4 x125 +8 x138 +16 x151 +32 x164 +64 x177 +128 x190 +256 x203 +512 x216 +1024 x229 +2048 x242 +4096 x255 +8192 x268 +16384 x281 +8 x126 +16 x139 +32 x152 +64 x165 +128 x178 +256 x191 +512 x204 +1024 x217 +2048 x230 +4096 x243 +8192 x256 +16384 x269 +32768 x282 +16 x127 +32 x140 +64 x153 +128 x166 +256 x179 +512 x192 +1024 x205 +2048 x218 +4096 x231 +8192 x244 +16384 x257 +32768 x270 +65536 x283 +32 x128 +64 x141 +128 x154 +256 x167 +512 x180 +1024 x193 +2048 x206 +4096 x219 +8192 x232 +16384 x245 +32768 x258 +65536 x271 +131072 x284 +64 x129 +128 x142 +256 x155 +512 x168 +1024 x181 +2048 x194 +4096 x207 +8192 x220 +16384 x233 +32768 x246 +65536 x259 +131072 x272 +262144 x285 +128 x130 +256 x143 +512 x156 +1024 x169 +2048 x182 +4096 x195 +8192 x208 +16384 x221 +32768 x234 +65536 x247 +131072 x260 +262144 x273 +524288 x286 +256 x131 +512 x144 +1024 x157 +2048 x170 +4096 x183 +8192 x196 +16384 x209 +32768 x222 +65536 x235 +131072 x248 +262144 x261 +524288 x274 +1048576 x287 +512 x132 +1024 x145 +2048 x158 +4096 x171 +8192 x184 +16384 x197 +32768 x210 +65536 x223 +131072 x236 +262144 x249 +524288 x262 +1048576 x275 +2097152 x288 +1024 x133 +2048 x146 +4096 x159 +8192 x172 +16384 x185 +32768 x198 +65536 x211 +131072 x224 +262144 x237 +524288 x250 +1048576 x263 +2097152 x276 +4194304 x289 +2048 x134 +4096 x147 +8192 x160 +16384 x173 +32768 x186 +65536 x199 +131072 x212 +262144 x225 +524288 x238 +1048576 x251 +2097152 x264 +4194304 x277 +8388608 x290 +4096 x135 +8192 x148 +16384 x161 +32768 x174 +65536 x187 +131072 x200 +262144 x213 +524288 x226 +1048576 x239 +2097152 x252 +4194304 x265 +8388608 x278 +16777216 x291 -1 x630 -2 x631 -4 x632 -8 x633 -16 x634 -32 x635 -64 x636 -128 x637 -256 x638 -512 x639 -1024 x640 -2048 x641 -4096 x642 -8192 x643 -16384 x644 -32768 x645 -65536 x646 -131072 x647 -262144 x648 -524288 x649 -1048576 x650 -2097152 x651 -4194304 x652 -8388608 x653 -16777216 x654 -33554432 x655 = 0; 
-1 x656 +1 x25 >= 0 ;
-1 x656 +1 x50 >= 0 ;
+1 x656 -1 x25 -1 x50 >= -1 ;
+1 x656 +2 x668 +4 x680 +8 x692 +16 x704 +32 x716 +64 x728 +128 x740 +256 x752 +512 x764 +1024 x776 +2048 x788 +2 x657 +4 x669 +8 x681 +16 x693 +32 x705 +64 x717 +128 x729 +256 x741 +512 x753 +1024 x765 +2048 x777 +4096 x789 +4 x658 +8 x670 +16 x682 +32 x694 +64 x706 +128 x718 +256 x730 +512 x742 +1024 x754 +2048 x766 +4096 x778 +8192 x790 +8 x659 +16 x671 +32 x683 +64 x695 +128 x707 +256 x719 +512 x731 +1024 x743 +2048 x755 +4096 x767 +8192 x779 +16384 x791 +16 x660 +32 x672 +64 x684 +128 x696 +256 x708 +512 x720 +1024 x732 +2048 x744 +4096 x756 +8192 x768 +16384 x780 +32768 x792 +32 x661 +64 x673 +128 x685 +256 x697 +512 x709 +1024 x721 +2048 x733 +4096 x745 +8192 x757 +16384 x769 +32768 x781 +65536 x793 +64 x662 +128 x674 +256 x686 +512 x698 +1024 x710 +2048 x722 +4096 x734 +8192 x746 +16384 x758 +32768 x770 +65536 x782 +131072 x794 +128 x663 +256 x675 +512 x687 +1024 x699 +2048 x711 +4096 x723 +8192 x735 +16384 x747 +32768 x759 +65536 x771 +131072 x783 +262144 x795 +256 x664 +512 x676 +1024 x688 +2048 x700 +4096 x712 +8192 x724 +16384 x736 +32768 x748 +65536 x760 +131072 x772 +262144 x784 +524288 x796 +512 x665 +1024 x677 +2048 x689 +4096 x701 +8192 x713 +16384 x725 +32768 x737 +65536 x749 +131072 x761 +262144 x773 +524288 x785 +1048576 x797 +1024 x666 +2048 x678 +4096 x690 +8192 x702 +16384 x714 +32768 x726 +65536 x738 +131072 x750 +262144 x762 +524288 x774 +1048576 x786 +2097152 x798 +2048 x667 +4096 x679 +8192 x691 +16384 x703 +32768 x715 +65536 x727 +131072 x739 +262144 x751 +524288 x763 +1048576 x775 +2097152 x787 +4194304 x799 -1 x1088 -2 x1089 -4 x1090 -8 x1091 -16 x1092 -32 x1093 -64 x1094 -128 x1095 -256 x1096 -512 x1097 -1024 x1098 -2048 x1099 -4096 x1100 -8192 x1101 -16384 x1102 -32768 x1103 -65536 x1104 -131072 x1105 -262144 x1106 -524288 x1107 -1048576 x1108 -2097152 x1109 -4194304 x1110 -8388608 x1111 = 0; 
+1 x1112 -1 x630 +2 x1113 -2 x631 +4 x1114 -4 x632 +8 x1115 -8 x633 +16 x1116 -16 x634 +32 x1117 -32 x635 +64 x1118 -64 x636 +128 x1119 -128 x637 +256 x1120 -256 x638 +512 x1121 -512 x639 +1024 x1122 -1024 x640 +2048 x1123 -2048 x641 +4096 x1124 -4096 x642 +8192 x1125 -8192 x643 +16384 x1126 -16384 x644 +32768 x1127 -32768 x645 +65536 x1128 -65536 x646 +131072 x1129 -131072 x647 +262144 x1130 -262144 x648 +524288 x1131 -524288 x649 +1048576 x1132 -1048576 x650 +2097152 x1133 -2097152 x651 +4194304 x1134 -4194304 x652 +8388608 x1135 -8388608 x653 +16777216 x1136 -16777216 x654 >= 1 ;
-1 x136 +1 x38 >= 0 ;
-1 x136 +1 x74 >= 0 ;
+1 x136 -1 x38 -1 x74 >= -1 ;
-1 x124 +1 x37 >= 0 ;
-1 x124 +1 x75 >= 0 ;
+1 x124 -1 x37 -1 x75 >= -1 ;
-1 x668 +1 x26 >= 0 ;
-1 x668 +1 x50 >= 0 ;
+1 x668 -1 x26 -1 x50 >= -1 ;
-1 x657 +1 x25 >= 0 ;
-1 x657 +1 x51 >= 0 ;
+1 x657 -1 x25 -1 x51 >= -1 ;
-1 x149 +1 x39 >= 0 ;
-1 x149 +1 x74 >= 0 ;
+1 x149 -1 x39 -1 x74 >= -1 ;
-1 x137 +1 x38 >= 0 ;
-1 x137 +1 x75 >= 0 ;
+1 x137 -1 x38 -1 x75 >= -1 ;
-1 x125 +1 x37 >= 0 ;
-1 x125 +1 x76 >= 0 ;
+1 x125 -1 x37 -1 x76 >= -1 ;
-1 x680 +1 x27 >= 0 ;
-1 x680 +1 x50 >= 0 ;
+1 x680 -1 x27 -1 x50 >= -1 ;
-1 x669 +1 x26 >= 0 ;
-1 x669 +1 x51 >= 0 ;
+1 x669 -1 x26 -1 x51 >= -1 ;
-1 x658 +1 x25 >= 0 ;
-1 x658 +1 x52 >= 0 ;
+1 x658 -1 x25 -1 x52 >= -1 ;
-1 x162 +1 x40 >= 0 ;
-1 x162 +1 x74 >= 0 ;
+1 x162 -1 x40 -1 x74 >= -1 ;
-1 x150 +1 x39 >= 0 ;
-1 x150 +1 x75 >= 0 ;
+1 x150 -1 x39 -1 x75 >= -1 ;
-1 x138 +1 x38 >= 0 ;
-1 x138 +1 x76 >= 0 ;
+1 x138 -1 x38 -1 x76 >= -1 ;
-1 x126 +1 x37 >= 0 ;
-1 x126 +1 x77 >= 0 ;
+1 x126 -1 x37 -1 x77 >= -1 ;
-1 x692 +1 x28 >= 0 ;
-1 x692 +1 x50 >= 0 ;
+1 x692 -1 x28 -1 x50 >= -1 ;
-1 x681 +1 x27 >= 0 ;
-1 x681 +1 x51 >= 0 ;
+1 x681 -1 x27 -1 x51 >= -1 ;
-1 x670 +1 x26 >= 0 ;
-1 x670 +1 x52 >= 0 ;
+1 x670 -1 x26 -1 x52 >= -1 ;
-1 x659 +1 x25 >= 0 ;
-1 x659 +1 x53 >= 0 ;
+1 x659 -1 x25 -1 x53 >= -1 ;
-1 x175 +1 x41 >= 0 ;
-1 x175 +1 x74 >= 0 ;
+1 x175 -1 x41 -1 x74 >= -1 ;
-1 x163 +1 x40 >= 0 ;
-1 x163 +1 x75 >= 0 ;
+1 x163 -1 x40 -1 x75 >= -1 ;
-1 x151 +1 x39 >= 0 ;
-1 x151 +1 x76 >= 0 ;
+1 x151 -1 x39 -1 x76 >= -1 ;
-1 x139 +1 x38 >= 0 ;
-1 x139 +1 x77 >= 0 ;
+1 x139 -1 x38 -1 x77 >= -1 ;
-1 x127 +1 x37 >= 0 ;
-1 x127 +1 x78 >= 0 ;
+1 x127 -1 x37 -1 x78 >= -1 ;
-1 x704 +1 x29 >= 0 ;
-1 x704 +1 x50 >= 0 ;
+1 x704 -1 x29 -1 x50 >= -1 ;
-1 x693 +1 x28 >= 0 ;
-1 x693 +1 x51 >= 0 ;
+1 x693 -1 x28 -1 x51 >= -1 ;
-1 x682 +1 x27 >= 0 ;
-1 x682 +1 x52 >= 0 ;
+1 x682 -1 x27 -1 x52 >= -1 ;
-1 x671 +1 x26 >= 0 ;
-1 x671 +1 x53 >= 0 ;
+1 x671 -1 x26 -1 x53 >= -1 ;
-1 x660 +1 x25 >= 0 ;
-1 x660 +1 x54 >= 0 ;
+1 x660 -1 x25 -1 x54 >= -1 ;
-1 x188 +1 x42 >= 0 ;
-1 x188 +1 x74 >= 0 ;
+1 x188 -1 x42 -1 x74 >= -1 ;
-1 x176 +1 x41 >= 0 ;
-1 x176 +1 x75 >= 0 ;
+1 x176 -1 x41 -1 x75 >= -1 ;
-1 x164 +1 x40 >= 0 ;
-1 x164 +1 x76 >= 0 ;
+1 x164 -1 x40 -1 x76 >= -1 ;
-1 x152 +1 x39 >= 0 ;
-1 x152 +1 x77 >= 0 ;
+1 x152 -1 x39 -1 x77 >= -1 ;
-1 x140 +1 x38 >= 0 ;
-1 x140 +1 x78 >= 0 ;
+1 x140 -1 x38 -1 x78 >= -1 ;
-1 x128 +1 x37 >= 0 ;
-1 x128 +1 x79 >= 0 ;
+1 x128 -1 x37 -1 x79 >= -1 ;
-1 x716 +1 x30 >= 0 ;
-1 x716 +1 x50 >= 0 ;
+1 x716 -1 x30 -1 x50 >= -1 ;
-1 x705 +1 x29 >= 0 ;
-1 x705 +1 x51 >= 0 ;
+1 x705 -1 x29 -1 x51 >= -1 ;
-1 x694 +1 x28 >= 0 ;
-1 x694 +1 x52 >= 0 ;
+1 x694 -1 x28 -1 x52 >= -1 ;
-1 x683 +1 x27 >= 0 ;
-1 x683 +1 x53 >= 0 ;
+1 x683 -1 x27 -1 x53 >= -1 ;
-1 x672 +1 x26 >= 0 ;
-1 x672 +1 x54 >= 0 ;
+1 x672 -1 x26 -1 x54 >= -1 ;
-1 x661 +1 x25 >= 0 ;
-1 x661 +1 x55 >= 0 ;
+1 x661 -1 x25 -1 x55 >= -1 ;
-1 x201 +1 x43 >= 0 ;
-1 x201 +1 x74 >= 0 ;
+1 x201 -1 x43 -1 x74 >= -1 ;
-1 x189 +1 x42 >= 0 ;
-1 x189 +1 x75 >= 0 ;
+1 x189 -1 x42 -1 x75 >= -1 ;
-1 x177 +1 x41 >= 0 ;
-1 x177 +1 x76 >= 0 ;
+1 x177 -1 x41 -1 x76 >= -1 ;
-1 x165 +1 x40 >= 0 ;
-1 x165 +1 x77 >= 0 ;
+1 x165 -1 x40 -1 x77 >= -1 ;
-1 x153 +1 x39 >= 0 ;
-1 x153 +1 x78 >= 0 ;
+1 x153 -1 x39 -1 x78 >= -1 ;
-1 x141 +1 x38 >= 0 ;
-1 x141 +1 x79 >= 0 ;
+1 x141 -1 x38 -1 x79 >= -1 ;
-1 x129 +1 x37 >= 0 ;
-1 x129 +1 x80 >= 0 ;
+1 x129 -1 x37 -1 x80 >= -1 ;
-1 x728 +1 x31 >= 0 ;
-1 x728 +1 x50 >= 0 ;
+1 x728 -1 x31 -1 x50 >= -1 ;
-1 x717 +1 x30 >= 0 ;
-1 x717 +1 x51 >= 0 ;
+1 x717 -1 x30 -1 x51 >= -1 ;
-1 x706 +1 x29 >= 0 ;
-1 x706 +1 x52 >= 0 ;
+1 x706 -1 x29 -1 x52 >= -1 ;
-1 x695 +1 x28 >= 0 ;
-1 x695 +1 x53 >= 0 ;
+1 x695 -1 x28 -1 x53 >= -1 ;
-1 x684 +1 x27 >= 0 ;
-1 x684 +1 x54 >= 0 ;
+1 x684 -1 x27 -1 x54 >= -1 ;
-1 x673 +1 x26 >= 0 ;
-1 x673 +1 x55 >= 0 ;
+1 x673 -1 x26 -1 x55 >= -1 ;
-1 x662 +1 x25 >= 0 ;
-1 x662 +1 x56 >= 0 ;
+1 x662 -1 x25 -1 x56 >= -1 ;
-1 x214 +1 x44 >= 0 ;
-1 x214 +1 x74 >= 0 ;
+1 x214 -1 x44 -1 x74 >= -1 ;
-1 x202 +1 x43 >= 0 ;
-1 x202 +1 x75 >= 0 ;
+1 x202 -1 x43 -1 x75 >= -1 ;
-1 x190 +1 x42 >= 0 ;
-1 x190 +1 x76 >= 0 ;
+1 x190 -1 x42 -1 x76 >= -1 ;
-1 x178 +1 x41 >= 0 ;
-1 x178 +1 x77 >= 0 ;
+1 x178 -1 x41 -1 x77 >= -1 ;
-1 x166 +1 x40 >= 0 ;
-1 x166 +1 x78 >= 0 ;
+1 x166 -1 x40 -1 x78 >= -1 ;
-1 x154 +1 x39 >= 0 ;
-1 x154 +1 x79 >= 0 ;
+1 x154 -1 x39 -1 x79 >= -1 ;
-1 x142 +1 x38 >= 0 ;
-1 x142 +1 x80 >= 0 ;
+1 x142 -1 x38 -1 x80 >= -1 ;
-1 x130 +1 x37 >= 0 ;
-1 x130 +1 x81 >= 0 ;
+1 x130 -1 x37 -1 x81 >= -1 ;
-1 x740 +1 x32 >= 0 ;
-1 x740 +1 x50 >= 0 ;
+1 x740 -1 x32 -1 x50 >= -1 ;
-1 x729 +1 x31 >= 0 ;
-1 x729 +1 x51 >= 0 ;
+1 x729 -1 x31 -1 x51 >= -1 ;
-1 x718 +1 x30 >= 0 ;
-1 x718 +1 x52 >= 0 ;
+1 x718 -1 x30 -1 x52 >= -1 ;
-1 x707 +1 x29 >= 0 ;
-1 x707 +1 x53 >= 0 ;
+1 x707 -1 x29 -1 x53 >= -1 ;
-1 x696 +1 x28 >= 0 ;
-1 x696 +1 x54 >= 0 ;
+1 x696 -1 x28 -1 x54 >= -1 ;
-1 x685 +1 x27 >= 0 ;
-1 x685 +1 x55 >= 0 ;
+1 x685 -1 x27 -1 x55 >= -1 ;
-1 x674 +1 x26 >= 0 ;
-1 x674 +1 x56 >= 0 ;
+1 x674 -1 x26 -1 x56 >= -1 ;
-1 x663 +1 x25 >= 0 ;
-1 x663 +1 x57 >= 0 ;
+1 x663 -1 x25 -1 x57 >= -1 ;
-1 x227 +1 x45 >= 0 ;
-1 x227 +1 x74 >= 0 ;
+1 x227 -1 x45 -1 x74 >= -1 ;
-1 x215 +1 x44 >= 0 ;
-1 x215 +1 x75 >= 0 ;
+1 x215 -1 x44 -1 x75 >= -1 ;
-1 x203 +1 x43 >= 0 ;
-1 x203 +1 x76 >= 0 ;
+1 x203 -1 x43 -1 x76 >= -1 ;
-1 x191 +1 x42 >= 0 ;
-1 x191 +1 x77 >= 0 ;
+1 x191 -1 x42 -1 x77 >= -1 ;
-1 x179 +1 x41 >= 0 ;
-1 x179 +1 x78 >= 0 ;
+1 x179 -1 x41 -1 x78 >= -1 ;
-1 x167 +1 x40 >= 0 ;
-1 x167 +1 x79 >= 0 ;
+1 x167 -1 x40 -1 x79 >= -1 ;
-1 x155 +1 x39 >= 0 ;
-1 x155 +1 x80 >= 0 ;
+1 x155 -1 x39 -1 x80 >= -1 ;
-1 x143 +1 x38 >= 0 ;
-1 x143 +1 x81 >= 0 ;
+1 x143 -1 x38 -1 x81 >= -1 ;
-1 x131 +1 x37 >= 0 ;
-1 x131 +1 x82 >= 0 ;
+1 x131 -1 x37 -1 x82 >= -1 ;
-1 x752 +1 x33 >= 0 ;
-1 x752 +1 x50 >= 0 ;
+1 x752 -1 x33 -1 x50 >= -1 ;
-1 x741 +1 x32 >= 0 ;
-1 x741 +1 x51 >= 0 ;
+1 x741 -1 x32 -1 x51 >= -1 ;
-1 x730 +1 x31 >= 0 ;
-1 x730 +1 x52 >= 0 ;
+1 x730 -1 x31 -1 x52 >= -1 ;
-1 x719 +1 x30 >= 0 ;
-1 x719 +1 x53 >= 0 ;
+1 x719 -1 x30 -1 x53 >= -1 ;
-1 x708 +1 x29 >= 0 ;
-1 x708 +1 x54 >= 0 ;
+1 x708 -1 x29 -1 x54 >= -1 ;
-1 x697 +1 x28 >= 0 ;
-1 x697 +1 x55 >= 0 ;
+1 x697 -1 x28 -1 x55 >= -1 ;
-1 x686 +1 x27 >= 0 ;
-1 x686 +1 x56 >= 0 ;
+1 x686 -1 x27 -1 x56 >= -1 ;
-1 x675 +1 x26 >= 0 ;
-1 x675 +1 x57 >= 0 ;
+1 x675 -1 x26 -1 x57 >= -1 ;
-1 x664 +1 x25 >= 0 ;
-1 x664 +1 x58 >= 0 ;
+1 x664 -1 x25 -1 x58 >= -1 ;
-1 x240 +1 x46 >= 0 ;
-1 x240 +1 x74 >= 0 ;
+1 x240 -1 x46 -1 x74 >= -1 ;
-1 x228 +1 x45 >= 0 ;
-1 x228 +1 x75 >= 0 ;
+1 x228 -1 x45 -1 x75 >= -1 ;
-1 x216 +1 x44 >= 0 ;
-1 x216 +1 x76 >= 0 ;
+1 x216 -1 x44 -1 x76 >= -1 ;
-1 x204 +1 x43 >= 0 ;
-1 x204 +1 x77 >= 0 ;
+1 x204 -1 x43 -1 x77 >= -1 ;
-1 x192 +1 x42 >= 0 ;
-1 x192 +1 x78 >= 0 ;
+1 x192 -1 x42 -1 x78 >= -1 ;
-1 x180 +1 x41 >= 0 ;
-1 x180 +1 x79 >= 0 ;
+1 x180 -1 x41 -1 x79 >= -1 ;
-1 x168 +1 x40 >= 0 ;
-1 x168 +1 x80 >= 0 ;
+1 x168 -1 x40 -1 x80 >= -1 ;
-1 x156 +1 x39 >= 0 ;
-1 x156 +1 x81 >= 0 ;
+1 x156 -1 x39 -1 x81 >= -1 ;
-1 x144 +1 x38 >= 0 ;
-1 x144 +1 x82 >= 0 ;
+1 x144 -1 x38 -1 x82 >= -1 ;
-1 x132 +1 x37 >= 0 ;
-1 x132 +1 x83 >= 0 ;
+1 x132 -1 x37 -1 x83 >= -1 ;
-1 x764 +1 x34 >= 0 ;
-1 x764 +1 x50 >= 0 ;
+1 x764 -1 x34 -1 x50 >= -1 ;
-1 x753 +1 x33 >= 0 ;
-1 x753 +1 x51 >= 0 ;
+1 x753 -1 x33 -1 x51 >= -1 ;
-1 x742 +1 x32 >= 0 ;
-1 x742 +1 x52 >= 0 ;
+1 x742 -1 x32 -1 x52 >= -1 ;
-1 x731 +1 x31 >= 0 ;
-1 x731 +1 x53 >= 0 ;
+1 x731 -1 x31 -1 x53 >= -1 ;
-1 x720 +1 x30 >= 0 ;
-1 x720 +1 x54 >= 0 ;
+1 x720 -1 x30 -1 x54 >= -1 ;
-1 x709 +1 x29 >= 0 ;
-1 x709 +1 x55 >= 0 ;
+1 x709 -1 x29 -1 x55 >= -1 ;
-1 x698 +1 x28 >= 0 ;
-1 x698 +1 x56 >= 0 ;
+1 x698 -1 x28 -1 x56 >= -1 ;
-1 x687 +1 x27 >= 0 ;
-1 x687 +1 x57 >= 0 ;
+1 x687 -1 x27 -1 x57 >= -1 ;
-1 x676 +1 x26 >= 0 ;
-1 x676 +1 x58 >= 0 ;
+1 x676 -1 x26 -1 x58 >= -1 ;
-1 x665 +1 x25 >= 0 ;
-1 x665 +1 x59 >= 0 ;
+1 x665 -1 x25 -1 x59 >= -1 ;
-1 x253 +1 x47 >= 0 ;
-1 x253 +1 x74 >= 0 ;
+1 x253 -1 x47 -1 x74 >= -1 ;
-1 x241 +1 x46 >= 0 ;
-1 x241 +1 x75 >= 0 ;
+1 x241 -1 x46 -1 x75 >= -1 ;
-1 x229 +1 x45 >= 0 ;
-1 x229 +1 x76 >= 0 ;
+1 x229 -1 x45 -1 x76 >= -1 ;
-1 x217 +1 x44 >= 0 ;
-1 x217 +1 x77 >= 0 ;
+1 x217 -1 x44 -1 x77 >= -1 ;
-1 x205 +1 x43 >= 0 ;
-1 x205 +1 x78 >= 0 ;
+1 x205 -1 x43 -1 x78 >= -1 ;
-1 x193 +1 x42 >= 0 ;
-1 x193 +1 x79 >= 0 ;
+1 x193 -1 x42 -1 x79 >= -1 ;
-1 x181 +1 x41 >= 0 ;
-1 x181 +1 x80 >= 0 ;
+1 x181 -1 x41 -1 x80 >= -1 ;
-1 x169 +1 x40 >= 0 ;
-1 x169 +1 x81 >= 0 ;
+1 x169 -1 x40 -1 x81 >= -1 ;
-1 x157 +1 x39 >= 0 ;
-1 x157 +1 x82 >= 0 ;
+1 x157 -1 x39 -1 x82 >= -1 ;
-1 x145 +1 x38 >= 0 ;
-1 x145 +1 x83 >= 0 ;
+1 x145 -1 x38 -1 x83 >= -1 ;
-1 x133 +1 x37 >= 0 ;
-1 x133 +1 x84 >= 0 ;
+1 x133 -1 x37 -1 x84 >= -1 ;
-1 x776 +1 x35 >= 0 ;
-1 x776 +1 x50 >= 0 ;
+1 x776 -1 x35 -1 x50 >= -1 ;
-1 x765 +1 x34 >= 0 ;
-1 x765 +1 x51 >= 0 ;
+1 x765 -1 x34 -1 x51 >= -1 ;
-1 x754 +1 x33 >= 0 ;
-1 x754 +1 x52 >= 0 ;
+1 x754 -1 x33 -1 x52 >= -1 ;
-1 x743 +1 x32 >= 0 ;
-1 x743 +1 x53 >= 0 ;
+1 x743 -1 x32 -1 x53 >= -1 ;
-1 x732 +1 x31 >= 0 ;
-1 x732 +1 x54 >= 0 ;
+1 x732 -1 x31 -1 x54 >= -1 ;
-1 x721 +1 x30 >= 0 ;
-1 x721 +1 x55 >= 0 ;
+1 x721 -1 x30 -1 x55 >= -1 ;
-1 x710 +1 x29 >= 0 ;
-1 x710 +1 x56 >= 0 ;
+1 x710 -1 x29 -1 x56 >= -1 ;
-1 x699 +1 x28 >= 0 ;
-1 x699 +1 x57 >= 0 ;
+1 x699 -1 x28 -1 x57 >= -1 ;
-1 x688 +1 x27 >= 0 ;
-1 x688 +1 x58 >= 0 ;
+1 x688 -1 x27 -1 x58 >= -1 ;
-1 x677 +1 x26 >= 0 ;
-1 x677 +1 x59 >= 0 ;
+1 x677 -1 x26 -1 x59 >= -1 ;
-1 x666 +1 x25 >= 0 ;
-1 x666 +1 x60 >= 0 ;
+1 x666 -1 x25 -1 x60 >= -1 ;
-1 x266 +1 x48 >= 0 ;
-1 x266 +1 x74 >= 0 ;
+1 x266 -1 x48 -1 x74 >= -1 ;
-1 x254 +1 x47 >= 0 ;
-1 x254 +1 x75 >= 0 ;
+1 x254 -1 x47 -1 x75 >= -1 ;
-1 x242 +1 x46 >= 0 ;
-1 x242 +1 x76 >= 0 ;
+1 x242 -1 x46 -1 x76 >= -1 ;
-1 x230 +1 x45 >= 0 ;
-1 x230 +1 x77 >= 0 ;
+1 x230 -1 x45 -1 x77 >= -1 ;
-1 x218 +1 x44 >= 0 ;
-1 x218 +1 x78 >= 0 ;
+1 x218 -1 x44 -1 x78 >= -1 ;
-1 x206 +1 x43 >= 0 ;
-1 x206 +1 x79 >= 0 ;
+1 x206 -1 x43 -1 x79 >= -1 ;
-1 x194 +1 x42 >= 0 ;
-1 x194 +1 x80 >= 0 ;
+1 x194 -1 x42 -1 x80 >= -1 ;
-1 x182 +1 x41 >= 0 ;
-1 x182 +1 x81 >= 0 ;
+1 x182 -1 x41 -1 x81 >= -1 ;
-1 x170 +1 x40 >= 0 ;
-1 x170 +1 x82 >= 0 ;
+1 x170 -1 x40 -1 x82 >= -1 ;
-1 x158 +1 x39 >= 0 ;
-1 x158 +1 x83 >= 0 ;
+1 x158 -1 x39 -1 x83 >= -1 ;
-1 x146 +1 x38 >= 0 ;
-1 x146 +1 x84 >= 0 ;
+1 x146 -1 x38 -1 x84 >= -1 ;
-1 x134 +1 x37 >= 0 ;
-1 x134 +1 x85 >= 0 ;
+1 x134 -1 x37 -1 x85 >= -1 ;
-1 x788 +1 x36 >= 0 ;
-1 x788 +1 x50 >= 0 ;
+1 x788 -1 x36 -1 x50 >= -1 ;
-1 x777 +1 x35 >= 0 ;
-1 x777 +1 x51 >= 0 ;
+1 x777 -1 x35 -1 x51 >= -1 ;
-1 x766 +1 x34 >= 0 ;
-1 x766 +1 x52 >= 0 ;
+1 x766 -1 x34 -1 x52 >= -1 ;
-1 x755 +1 x33 >= 0 ;
-1 x755 +1 x53 >= 0 ;
+1 x755 -1 x33 -1 x53 >= -1 ;
-1 x744 +1 x32 >= 0 ;
-1 x744 +1 x54 >= 0 ;
+1 x744 -1 x32 -1 x54 >= -1 ;
-1 x733 +1 x31 >= 0 ;
-1 x733 +1 x55 >= 0 ;
+1 x733 -1 x31 -1 x55 >= -1 ;
-1 x722 +1 x30 >= 0 ;
-1 x722 +1 x56 >= 0 ;
+1 x722 -1 x30 -1 x56 >= -1 ;
-1 x711 +1 x29 >= 0 ;
-1 x711 +1 x57 >= 0 ;
+1 x711 -1 x29 -1 x57 >= -1 ;
-1 x700 +1 x28 >= 0 ;
-1 x700 +1 x58 >= 0 ;
+1 x700 -1 x28 -1 x58 >= -1 ;
-1 x689 +1 x27 >= 0 ;
-1 x689 +1 x59 >= 0 ;
+1 x689 -1 x27 -1 x59 >= -1 ;
-1 x678 +1 x26 >= 0 ;
-1 x678 +1 x60 >= 0 ;
+1 x678 -1 x26 -1 x60 >= -1 ;
-1 x667 +1 x25 >= 0 ;
-1 x667 +1 x61 >= 0 ;
+1 x667 -1 x25 -1 x61 >= -1 ;
-1 x279 +1 x49 >= 0 ;
-1 x279 +1 x74 >= 0 ;
+1 x279 -1 x49 -1 x74 >= -1 ;
-1 x267 +1 x48 >= 0 ;
-1 x267 +1 x75 >= 0 ;
+1 x267 -1 x48 -1 x75 >= -1 ;
-1 x255 +1 x47 >= 0 ;
-1 x255 +1 x76 >= 0 ;
+1 x255 -1 x47 -1 x76 >= -1 ;
-1 x243 +1 x46 >= 0 ;
-1 x243 +1 x77 >= 0 ;
+1 x243 -1 x46 -1 x77 >= -1 ;
-1 x231 +1 x45 >= 0 ;
-1 x231 +1 x78 >= 0 ;
+1 x231 -1 x45 -1 x78 >= -1 ;
-1 x219 +1 x44 >= 0 ;
-1 x219 +1 x79 >= 0 ;
+1 x219 -1 x44 -1 x79 >= -1 ;
-1 x207 +1 x43 >= 0 ;
-1 x207 +1 x80 >= 0 ;
+1 x207 -1 x43 -1 x80 >= -1 ;
-1 x195 +1 x42 >= 0 ;
-1 x195 +1 x81 >= 0 ;
+1 x195 -1 x42 -1 x81 >= -1 ;
-1 x183 +1 x41 >= 0 ;
-1 x183 +1 x82 >= 0 ;
+1 x183 -1 x41 -1 x82 >= -1 ;
-1 x171 +1 x40 >= 0 ;
-1 x171 +1 x83 >= 0 ;
+1 x171 -1 x40 -1 x83 >= -1 ;
-1 x159 +1 x39 >= 0 ;
-1 x159 +1 x84 >= 0 ;
+1 x159 -1 x39 -1 x84 >= -1 ;
-1 x147 +1 x38 >= 0 ;
-1 x147 +1 x85 >= 0 ;
+1 x147 -1 x38 -1 x85 >= -1 ;
-1 x135 +1 x37 >= 0 ;
-1 x135 +1 x86 >= 0 ;
+1 x135 -1 x37 -1 x86 >= -1 ;
-1 x789 +1 x36 >= 0 ;
-1 x789 +1 x51 >= 0 ;
+1 x789 -1 x36 -1 x51 >= -1 ;
-1 x778 +1 x35 >= 0 ;
-1 x778 +1 x52 >= 0 ;
+1 x778 -1 x35 -1 x52 >= -1 ;
-1 x767 +1 x34 >= 0 ;
-1 x767 +1 x53 >= 0 ;
+1 x767 -1 x34 -1 x53 >= -1 ;
-1 x756 +1 x33 >= 0 ;
-1 x756 +1 x54 >= 0 ;
+1 x756 -1 x33 -1 x54 >= -1 ;
-1 x745 +1 x32 >= 0 ;
-1 x745 +1 x55 >= 0 ;
+1 x745 -1 x32 -1 x55 >= -1 ;
-1 x734 +1 x31 >= 0 ;
-1 x734 +1 x56 >= 0 ;
+1 x734 -1 x31 -1 x56 >= -1 ;
-1 x723 +1 x30 >= 0 ;
-1 x723 +1 x57 >= 0 ;
+1 x723 -1 x30 -1 x57 >= -1 ;
-1 x712 +1 x29 >= 0 ;
-1 x712 +1 x58 >= 0 ;
+1 x712 -1 x29 -1 x58 >= -1 ;
-1 x701 +1 x28 >= 0 ;
-1 x701 +1 x59 >= 0 ;
+1 x701 -1 x28 -1 x59 >= -1 ;
-1 x690 +1 x27 >= 0 ;
-1 x690 +1 x60 >= 0 ;
+1 x690 -1 x27 -1 x60 >= -1 ;
-1 x679 +1 x26 >= 0 ;
-1 x679 +1 x61 >= 0 ;
+1 x679 -1 x26 -1 x61 >= -1 ;
-1 x280 +1 x49 >= 0 ;
-1 x280 +1 x75 >= 0 ;
+1 x280 -1 x49 -1 x75 >= -1 ;
-1 x268 +1 x48 >= 0 ;
-1 x268 +1 x76 >= 0 ;
+1 x268 -1 x48 -1 x76 >= -1 ;
-1 x256 +1 x47 >= 0 ;
-1 x256 +1 x77 >= 0 ;
+1 x256 -1 x47 -1 x77 >= -1 ;
-1 x244 +1 x46 >= 0 ;
-1 x244 +1 x78 >= 0 ;
+1 x244 -1 x46 -1 x78 >= -1 ;
-1 x232 +1 x45 >= 0 ;
-1 x232 +1 x79 >= 0 ;
+1 x232 -1 x45 -1 x79 >= -1 ;
-1 x220 +1 x44 >= 0 ;
-1 x220 +1 x80 >= 0 ;
+1 x220 -1 x44 -1 x80 >= -1 ;
-1 x208 +1 x43 >= 0 ;
-1 x208 +1 x81 >= 0 ;
+1 x208 -1 x43 -1 x81 >= -1 ;
-1 x196 +1 x42 >= 0 ;
-1 x196 +1 x82 >= 0 ;
+1 x196 -1 x42 -1 x82 >= -1 ;
-1 x184 +1 x41 >= 0 ;
-1 x184 +1 x83 >= 0 ;
+1 x184 -1 x41 -1 x83 >= -1 ;
-1 x172 +1 x40 >= 0 ;
-1 x172 +1 x84 >= 0 ;
+1 x172 -1 x40 -1 x84 >= -1 ;
-1 x160 +1 x39 >= 0 ;
-1 x160 +1 x85 >= 0 ;
+1 x160 -1 x39 -1 x85 >= -1 ;
-1 x148 +1 x38 >= 0 ;
-1 x148 +1 x86 >= 0 ;
+1 x148 -1 x38 -1 x86 >= -1 ;
-1 x790 +1 x36 >= 0 ;
-1 x790 +1 x52 >= 0 ;
+1 x790 -1 x36 -1 x52 >= -1 ;
-1 x779 +1 x35 >= 0 ;
-1 x779 +1 x53 >= 0 ;
+1 x779 -1 x35 -1 x53 >= -1 ;
-1 x768 +1 x34 >= 0 ;
-1 x768 +1 x54 >= 0 ;
+1 x768 -1 x34 -1 x54 >= -1 ;
-1 x757 +1 x33 >= 0 ;
-1 x757 +1 x55 >= 0 ;
+1 x757 -1 x33 -1 x55 >= -1 ;
-1 x746 +1 x32 >= 0 ;
-1 x746 +1 x56 >= 0 ;
+1 x746 -1 x32 -1 x56 >= -1 ;
-1 x735 +1 x31 >= 0 ;
-1 x735 +1 x57 >= 0 ;
+1 x735 -1 x31 -1 x57 >= -1 ;
-1 x724 +1 x30 >= 0 ;
-1 x724 +1 x58 >= 0 ;
+1 x724 -1 x30 -1 x58 >= -1 ;
-1 x713 +1 x29 >= 0 ;
-1 x713 +1 x59 >= 0 ;
+1 x713 -1 x29 -1 x59 >= -1 ;
-1 x702 +1 x28 >= 0 ;
-1 x702 +1 x60 >= 0 ;
+1 x702 -1 x28 -1 x60 >= -1 ;
-1 x691 +1 x27 >= 0 ;
-1 x691 +1 x61 >= 0 ;
+1 x691 -1 x27 -1 x61 >= -1 ;
-1 x281 +1 x49 >= 0 ;
-1 x281 +1 x76 >= 0 ;
+1 x281 -1 x49 -1 x76 >= -1 ;
-1 x269 +1 x48 >= 0 ;
-1 x269 +1 x77 >= 0 ;
+1 x269 -1 x48 -1 x77 >= -1 ;
-1 x257 +1 x47 >= 0 ;
-1 x257 +1 x78 >= 0 ;
+1 x257 -1 x47 -1 x78 >= -1 ;
-1 x245 +1 x46 >= 0 ;
-1 x245 +1 x79 >= 0 ;
+1 x245 -1 x46 -1 x79 >= -1 ;
-1 x233 +1 x45 >= 0 ;
-1 x233 +1 x80 >= 0 ;
+1 x233 -1 x45 -1 x80 >= -1 ;
-1 x221 +1 x44 >= 0 ;
-1 x221 +1 x81 >= 0 ;
+1 x221 -1 x44 -1 x81 >= -1 ;
-1 x209 +1 x43 >= 0 ;
-1 x209 +1 x82 >= 0 ;
+1 x209 -1 x43 -1 x82 >= -1 ;
-1 x197 +1 x42 >= 0 ;
-1 x197 +1 x83 >= 0 ;
+1 x197 -1 x42 -1 x83 >= -1 ;
-1 x185 +1 x41 >= 0 ;
-1 x185 +1 x84 >= 0 ;
+1 x185 -1 x41 -1 x84 >= -1 ;
-1 x173 +1 x40 >= 0 ;
-1 x173 +1 x85 >= 0 ;
+1 x173 -1 x40 -1 x85 >= -1 ;
-1 x161 +1 x39 >= 0 ;
-1 x161 +1 x86 >= 0 ;
+1 x161 -1 x39 -1 x86 >= -1 ;
-1 x791 +1 x36 >= 0 ;
-1 x791 +1 x53 >= 0 ;
+1 x791 -1 x36 -1 x53 >= -1 ;
-1 x780 +1 x35 >= 0 ;
-1 x780 +1 x54 >= 0 ;
+1 x780 -1 x35 -1 x54 >= -1 ;
-1 x769 +1 x34 >= 0 ;
-1 x769 +1 x55 >= 0 ;
+1 x769 -1 x34 -1 x55 >= -1 ;
-1 x758 +1 x33 >= 0 ;
-1 x758 +1 x56 >= 0 ;
+1 x758 -1 x33 -1 x56 >= -1 ;
-1 x747 +1 x32 >= 0 ;
-1 x747 +1 x57 >= 0 ;
+1 x747 -1 x32 -1 x57 >= -1 ;
-1 x736 +1 x31 >= 0 ;
-1 x736 +1 x58 >= 0 ;
+1 x736 -1 x31 -1 x58 >= -1 ;
-1 x725 +1 x30 >= 0 ;
-1 x725 +1 x59 >= 0 ;
+1 x725 -1 x30 -1 x59 >= -1 ;
-1 x714 +1 x29 >= 0 ;
-1 x714 +1 x60 >= 0 ;
+1 x714 -1 x29 -1 x60 >= -1 ;
-1 x703 +1 x28 >= 0 ;
-1 x703 +1 x61 >= 0 ;
+1 x703 -1 x28 -1 x61 >= -1 ;
-1 x282 +1 x49 >= 0 ;
-1 x282 +1 x77 >= 0 ;
+1 x282 -1 x49 -1 x77 >= -1 ;
-1 x270 +1 x48 >= 0 ;
-1 x270 +1 x78 >= 0 ;
+1 x270 -1 x48 -1 x78 >= -1 ;
-1 x258 +1 x47 >= 0 ;
-1 x258 +1 x79 >= 0 ;
+1 x258 -1 x47 -1 x79 >= -1 ;
-1 x246 +1 x46 >= 0 ;
-1 x246 +1 x80 >= 0 ;
+1 x246 -1 x46 -1 x80 >= -1 ;
-1 x234 +1 x45 >= 0 ;
-1 x234 +1 x81 >= 0 ;
+1 x234 -1 x45 -1 x81 >= -1 ;
-1 x222 +1 x44 >= 0 ;
-1 x222 +1 x82 >= 0 ;
+1 x222 -1 x44 -1 x82 >= -1 ;
-1 x210 +1 x43 >= 0 ;
-1 x210 +1 x83 >= 0 ;
+1 x210 -1 x43 -1 x83 >= -1 ;
-1 x198 +1 x42 >= 0 ;
-1 x198 +1 x84 >= 0 ;
+1 x198 -1 x42 -1 x84 >= -1 ;
-1 x186 +1 x41 >= 0 ;
-1 x186 +1 x85 >= 0 ;
+1 x186 -1 x41 -1 x85 >= -1 ;
-1 x174 +1 x40 >= 0 ;
-1 x174 +1 x86 >= 0 ;
+1 x174 -1 x40 -1 x86 >= -1 ;
-1 x792 +1 x36 >= 0 ;
-1 x792 +1 x54 >= 0 ;
+1 x792 -1 x36 -1 x54 >= -1 ;
-1 x781 +1 x35 >= 0 ;
-1 x781 +1 x55 >= 0 ;
+1 x781 -1 x35 -1 x55 >= -1 ;
-1 x770 +1 x34 >= 0 ;
-1 x770 +1 x56 >= 0 ;
+1 x770 -1 x34 -1 x56 >= -1 ;
-1 x759 +1 x33 >= 0 ;
-1 x759 +1 x57 >= 0 ;
+1 x759 -1 x33 -1 x57 >= -1 ;
-1 x748 +1 x32 >= 0 ;
-1 x748 +1 x58 >= 0 ;
+1 x748 -1 x32 -1 x58 >= -1 ;
-1 x737 +1 x31 >= 0 ;
-1 x737 +1 x59 >= 0 ;
+1 x737 -1 x31 -1 x59 >= -1 ;
-1 x726 +1 x30 >= 0 ;
-1 x726 +1 x60 >= 0 ;
+1 x726 -1 x30 -1 x60 >= -1 ;
-1 x715 +1 x29 >= 0 ;
-1 x715 +1 x61 >= 0 ;
+1 x715 -1 x29 -1 x61 >= -1 ;
-1 x283 +1 x49 >= 0 ;
-1 x283 +1 x78 >= 0 ;
+1 x283 -1 x49 -1 x78 >= -1 ;
-1 x271 +1 x48 >= 0 ;
-1 x271 +1 x79 >= 0 ;
+1 x271 -1 x48 -1 x79 >= -1 ;
-1 x259 +1 x47 >= 0 ;
-1 x259 +1 x80 >= 0 ;
+1 x259 -1 x47 -1 x80 >= -1 ;
-1 x247 +1 x46 >= 0 ;
-1 x247 +1 x81 >= 0 ;
+1 x247 -1 x46 -1 x81 >= -1 ;
-1 x235 +1 x45 >= 0 ;
-1 x235 +1 x82 >= 0 ;
+1 x235 -1 x45 -1 x82 >= -1 ;
-1 x223 +1 x44 >= 0 ;
-1 x223 +1 x83 >= 0 ;
+1 x223 -1 x44 -1 x83 >= -1 ;
-1 x211 +1 x43 >= 0 ;
-1 x211 +1 x84 >= 0 ;
+1 x211 -1 x43 -1 x84 >= -1 ;
-1 x199 +1 x42 >= 0 ;
-1 x199 +1 x85 >= 0 ;
+1 x199 -1 x42 -1 x85 >= -1 ;
-1 x187 +1 x41 >= 0 ;
-1 x187 +1 x86 >= 0 ;
+1 x187 -1 x41 -1 x86 >= -1 ;
-1 x793 +1 x36 >= 0 ;
-1 x793 +1 x55 >= 0 ;
+1 x793 -1 x36 -1 x55 >= -1 ;
-1 x782 +1 x35 >= 0 ;
-1 x782 +1 x56 >= 0 ;
+1 x782 -1 x35 -1 x56 >= -1 ;
-1 x771 +1 x34 >= 0 ;
-1 x771 +1 x57 >= 0 ;
+1 x771 -1 x34 -1 x57 >= -1 ;
-1 x760 +1 x33 >= 0 ;
-1 x760 +1 x58 >= 0 ;
+1 x760 -1 x33 -1 x58 >= -1 ;
-1 x749 +1 x32 >= 0 ;
-1 x749 +1 x59 >= 0 ;
+1 x749 -1 x32 -1 x59 >= -1 ;
-1 x738 +1 x31 >= 0 ;
-1 x738 +1 x60 >= 0 ;
+1 x738 -1 x31 -1 x60 >= -1 ;
-1 x727 +1 x30 >= 0 ;
-1 x727 +1 x61 >= 0 ;
+1 x727 -1 x30 -1 x61 >= -1 ;
-1 x284 +1 x49 >= 0 ;
-1 x284 +1 x79 >= 0 ;
+1 x284 -1 x49 -1 x79 >= -1 ;
-1 x272 +1 x48 >= 0 ;
-1 x272 +1 x80 >= 0 ;
+1 x272 -1 x48 -1 x80 >= -1 ;
-1 x260 +1 x47 >= 0 ;
-1 x260 +1 x81 >= 0 ;
+1 x260 -1 x47 -1 x81 >= -1 ;
-1 x248 +1 x46 >= 0 ;
-1 x248 +1 x82 >= 0 ;
+1 x248 -1 x46 -1 x82 >= -1 ;
-1 x236 +1 x45 >= 0 ;
-1 x236 +1 x83 >= 0 ;
+1 x236 -1 x45 -1 x83 >= -1 ;
-1 x224 +1 x44 >= 0 ;
-1 x224 +1 x84 >= 0 ;
+1 x224 -1 x44 -1 x84 >= -1 ;
-1 x212 +1 x43 >= 0 ;
-1 x212 +1 x85 >= 0 ;
+1 x212 -1 x43 -1 x85 >= -1 ;
-1 x200 +1 x42 >= 0 ;
-1 x200 +1 x86 >= 0 ;
+1 x200 -1 x42 -1 x86 >= -1 ;
-1 x794 +1 x36 >= 0 ;
-1 x794 +1 x56 >= 0 ;
+1 x794 -1 x36 -1 x56 >= -1 ;
-1 x783 +1 x35 >= 0 ;
-1 x783 +1 x57 >= 0 ;
+1 x783 -1 x35 -1 x57 >= -1 ;
-1 x772 +1 x34 >= 0 ;
-1 x772 +1 x58 >= 0 ;
+1 x772 -1 x34 -1 x58 >= -1 ;
-1 x761 +1 x33 >= 0 ;
-1 x761 +1 x59 >= 0 ;
+1 x761 -1 x33 -1 x59 >= -1 ;
-1 x750 +1 x32 >= 0 ;
-1 x750 +1 x60 >= 0 ;
+1 x750 -1 x32 -1 x60 >= -1 ;
-1 x739 +1 x31 >= 0 ;
-1 x739 +1 x61 >= 0 ;
+1 x739 -1 x31 -1 x61 >= -1 ;
-1 x285 +1 x49 >= 0 ;
-1 x285 +1 x80 >= 0 ;
+1 x285 -1 x49 -1 x80 >= -1 ;
-1 x273 +1 x48 >= 0 ;
-1 x273 +1 x81 >= 0 ;
+1 x273 -1 x48 -1 x81 >= -1 ;
-1 x261 +1 x47 >= 0 ;
-1 x261 +1 x82 >= 0 ;
+1 x261 -1 x47 -1 x82 >= -1 ;
-1 x249 +1 x46 >= 0 ;
-1 x249 +1 x83 >= 0 ;
+1 x249 -1 x46 -1 x83 >= -1 ;
-1 x237 +1 x45 >= 0 ;
-1 x237 +1 x84 >= 0 ;
+1 x237 -1 x45 -1 x84 >= -1 ;
-1 x225 +1 x44 >= 0 ;
-1 x225 +1 x85 >= 0 ;
+1 x225 -1 x44 -1 x85 >= -1 ;
-1 x213 +1 x43 >= 0 ;
-1 x213 +1 x86 >= 0 ;
+1 x213 -1 x43 -1 x86 >= -1 ;
-1 x795 +1 x36 >= 0 ;
-1 x795 +1 x57 >= 0 ;
+1 x795 -1 x36 -1 x57 >= -1 ;
-1 x784 +1 x35 >= 0 ;
-1 x784 +1 x58 >= 0 ;
+1 x784 -1 x35 -1 x58 >= -1 ;
-1 x773 +1 x34 >= 0 ;
-1 x773 +1 x59 >= 0 ;
+1 x773 -1 x34 -1 x59 >= -1 ;
-1 x762 +1 x33 >= 0 ;
-1 x762 +1 x60 >= 0 ;
+1 x762 -1 x33 -1 x60 >= -1 ;
-1 x751 +1 x32 >= 0 ;
-1 x751 +1 x61 >= 0 ;
+1 x751 -1 x32 -1 x61 >= -1 ;
-1 x286 +1 x49 >= 0 ;
-1 x286 +1 x81 >= 0 ;
+1 x286 -1 x49 -1 x81 >= -1 ;
-1 x274 +1 x48 >= 0 ;
-1 x274 +1 x82 >= 0 ;
+1 x274 -1 x48 -1 x82 >= -1 ;
-1 x262 +1 x47 >= 0 ;
-1 x262 +1 x83 >= 0 ;
+1 x262 -1 x47 -1 x83 >= -1 ;
-1 x250 +1 x46 >= 0 ;
-1 x250 +1 x84 >= 0 ;
+1 x250 -1 x46 -1 x84 >= -1 ;
-1 x238 +1 x45 >= 0 ;
-1 x238 +1 x85 >= 0 ;
+1 x238 -1 x45 -1 x85 >= -1 ;
-1 x226 +1 x44 >= 0 ;
-1 x226 +1 x86 >= 0 ;
+1 x226 -1 x44 -1 x86 >= -1 ;
-1 x796 +1 x36 >= 0 ;
-1 x796 +1 x58 >= 0 ;
+1 x796 -1 x36 -1 x58 >= -1 ;
-1 x785 +1 x35 >= 0 ;
-1 x785 +1 x59 >= 0 ;
+1 x785 -1 x35 -1 x59 >= -1 ;
-1 x774 +1 x34 >= 0 ;
-1 x774 +1 x60 >= 0 ;
+1 x774 -1 x34 -1 x60 >= -1 ;
-1 x763 +1 x33 >= 0 ;
-1 x763 +1 x61 >= 0 ;
+1 x763 -1 x33 -1 x61 >= -1 ;
-1 x287 +1 x49 >= 0 ;
-1 x287 +1 x82 >= 0 ;
+1 x287 -1 x49 -1 x82 >= -1 ;
-1 x275 +1 x48 >= 0 ;
-1 x275 +1 x83 >= 0 ;
+1 x275 -1 x48 -1 x83 >= -1 ;
-1 x263 +1 x47 >= 0 ;
-1 x263 +1 x84 >= 0 ;
+1 x263 -1 x47 -1 x84 >= -1 ;
-1 x251 +1 x46 >= 0 ;
-1 x251 +1 x85 >= 0 ;
+1 x251 -1 x46 -1 x85 >= -1 ;
-1 x239 +1 x45 >= 0 ;
-1 x239 +1 x86 >= 0 ;
+1 x239 -1 x45 -1 x86 >= -1 ;
-1 x797 +1 x36 >= 0 ;
-1 x797 +1 x59 >= 0 ;
+1 x797 -1 x36 -1 x59 >= -1 ;
-1 x786 +1 x35 >= 0 ;
-1 x786 +1 x60 >= 0 ;
+1 x786 -1 x35 -1 x60 >= -1 ;
-1 x775 +1 x34 >= 0 ;
-1 x775 +1 x61 >= 0 ;
+1 x775 -1 x34 -1 x61 >= -1 ;
-1 x288 +1 x49 >= 0 ;
-1 x288 +1 x83 >= 0 ;
+1 x288 -1 x49 -1 x83 >= -1 ;
-1 x276 +1 x48 >= 0 ;
-1 x276 +1 x84 >= 0 ;
+1 x276 -1 x48 -1 x84 >= -1 ;
-1 x264 +1 x47 >= 0 ;
-1 x264 +1 x85 >= 0 ;
+1 x264 -1 x47 -1 x85 >= -1 ;
-1 x252 +1 x46 >= 0 ;
-1 x252 +1 x86 >= 0 ;
+1 x252 -1 x46 -1 x86 >= -1 ;
-1 x798 +1 x36 >= 0 ;
-1 x798 +1 x60 >= 0 ;
+1 x798 -1 x36 -1 x60 >= -1 ;
-1 x787 +1 x35 >= 0 ;
-1 x787 +1 x61 >= 0 ;
+1 x787 -1 x35 -1 x61 >= -1 ;
-1 x289 +1 x49 >= 0 ;
-1 x289 +1 x84 >= 0 ;
+1 x289 -1 x49 -1 x84 >= -1 ;
-1 x277 +1 x48 >= 0 ;
-1 x277 +1 x85 >= 0 ;
+1 x277 -1 x48 -1 x85 >= -1 ;
-1 x265 +1 x47 >= 0 ;
-1 x265 +1 x86 >= 0 ;
+1 x265 -1 x47 -1 x86 >= -1 ;
-1 x799 +1 x36 >= 0 ;
-1 x799 +1 x61 >= 0 ;
+1 x799 -1 x36 -1 x61 >= -1 ;
-1 x290 +1 x49 >= 0 ;
-1 x290 +1 x85 >= 0 ;
+1 x290 -1 x49 -1 x85 >= -1 ;
-1 x278 +1 x48 >= 0 ;
-1 x278 +1 x86 >= 0 ;
+1 x278 -1 x48 -1 x86 >= -1 ;
-1 x291 +1 x49 >= 0 ;
-1 x291 +1 x86 >= 0 ;
+1 x291 -1 x49 -1 x86 >= -1 ;
